Route #1: 1 17 24 3 45 12 1
Route #2: 1 42 22 37 48 6 57 23 1
Route #3: 1 14 15 35 20 40 27 1
Route #4: 1 16 26 52 9 38 21 43 8 54 30 1
Route #5: 1 47 4 41 51 11 18 32 33 1
Route #6: 1 19 28 29 10 56 2 44 1
Route #7: 1 36 34 49 13 39 50 31 1
Route #8: 1 7 55 53 25 46 1
Route #9: 1 5 1
cost 1771.833104341641